30
3 1 13
3 2 31
6 0 13
8 4 4
8 6 35
8 7 14
11 6 11
12 6 14
13 0 1
13 9 5
16 13 24
17 3 40
19 17 7
20 7 5
21 16 10
22 6 28
22 11 30
22 15 27
23 15 33
23 19 39
24 5 3
25 20 27
26 9 36
26 11 33
26 13 40
26 15 36
26 20 40
26 25 11
27 0 39
27 4 8
27 17 16
27 26 5
28 13 38
28 15 13
28 16 39
28 24 12
29 12 16
